30	100	100	100
82	92	94
58	31	20
21	47	99
77	71	75
78	87	23
91	89	59
16	85	89
51	31	20
46	91	86
56	4	76
9	88	38
79	89	48
81	29	14
68	46	87
31	43	99
84	47	64
34	84	91
21	94	56
33	56	64
51	68	10
84	49	82
34	32	3
69	87	36
63	50	12
76	37	67
19	61	1
96	3	6
80	89	30
4	70	87
42	80	89
